177 300 174 199 8 190 101 114 127 157 12 161 8 45 151 33 67 141 199 81 139 68 148 167 45 93 172 83 27 54 187 16 182 113 166 141 102 19 54 181 175 18 141 182 62 43 14 129 136 165 161 26 32 108 192 28 152 163 63 131 168 1 146 101 113 112 42 167 130 47 99 104 16 39 38 30 34 51 158 169 15 70 194 199 130 185 178 81 100 40 11 19 193 109 72 105 172 113 23 101 111 121 156 127 160 145 156 193 196 65 113 162 86 106 112 15 42 42 96 93 33 58 112 25 166 135 82 137 199 104 189 109 25 97 187 136 41 94 80 188 110 192 102 196 97 165 162 90 6 57 183 39 67 46 63 184 180 144 73 130 200 13 190 24 109 177 159 102 22 190 41 84 181 142 31 29 107 192 118 